p cnf 20 8
a 1 0
e 2 0
a 3 4 5 0
e 6 7 0
a 8 9 10 0
e 11 12 0
a 13 0
e 14 15 0
a 16 0
e 17 0
a 18 0
e 19 20 0
-19 -3 -12 2 -7 0
6 8 -2 0
16 -10 0
-20 19 -1 0
6 -18 0
11 4 3 -14 0
2 11 -13 12 0
2 -8 5 19 -3 0
